(set-logic HORN)
(declare-datatypes ((Bool_205 0)) (((false_205 ) (true_205 ))))
(declare-fun diseqBool_92 (Bool_205 Bool_205) Bool)
(declare-fun isfalse_92 (Bool_205) Bool)
(declare-fun istrue_92 (Bool_205) Bool)
(assert (isfalse_92 false_205))
(assert (istrue_92 true_205))
(assert (diseqBool_92 false_205 true_205))
(assert (diseqBool_92 true_205 false_205))
(declare-fun and_205 (Bool_205 Bool_205 Bool_205) Bool)
(declare-fun or_209 (Bool_205 Bool_205 Bool_205) Bool)
(declare-fun hence_205 (Bool_205 Bool_205 Bool_205) Bool)
(declare-fun not_208 (Bool_205 Bool_205) Bool)
(assert (and_205 false_205 false_205 false_205))
(assert (and_205 false_205 true_205 false_205))
(assert (and_205 false_205 false_205 true_205))
(assert (and_205 true_205 true_205 true_205))
(assert (or_209 false_205 false_205 false_205))
(assert (or_209 true_205 true_205 false_205))
(assert (or_209 true_205 false_205 true_205))
(assert (or_209 true_205 true_205 true_205))
(assert (hence_205 true_205 false_205 false_205))
(assert (hence_205 false_205 true_205 false_205))
(assert (hence_205 true_205 false_205 true_205))
(assert (hence_205 true_205 true_205 true_205))
(assert (not_208 true_205 false_205))
(assert (not_208 false_205 true_205))
(declare-datatypes ((Nat_353 0)) (((zero_77 ) (succ_75 (p_216 Nat_353)))))
(declare-fun diseqNat_353 (Nat_353 Nat_353) Bool)
(declare-fun p_217 (Nat_353 Nat_353) Bool)
(declare-fun iszero_75 (Nat_353) Bool)
(declare-fun issucc_75 (Nat_353) Bool)
(assert (forall ((x_33651 Nat_353))
	(p_217 x_33651 (succ_75 x_33651))))
(assert (iszero_75 zero_77))
(assert (forall ((x_33653 Nat_353))
	(issucc_75 (succ_75 x_33653))))
(assert (forall ((x_33654 Nat_353))
	(diseqNat_353 zero_77 (succ_75 x_33654))))
(assert (forall ((x_33655 Nat_353))
	(diseqNat_353 (succ_75 x_33655) zero_77)))
(assert (forall ((x_33656 Nat_353) (x_33657 Nat_353))
	(=> (diseqNat_353 x_33656 x_33657)
	    (diseqNat_353 (succ_75 x_33656) (succ_75 x_33657)))))
(declare-fun leq_29 (Bool_205 Nat_353 Nat_353) Bool)
(assert (forall ((x_33641 Bool_205) (x_33639 Nat_353) (z_1184 Nat_353))
	(=> (leq_29 x_33641 z_1184 x_33639)
	    (leq_29 x_33641 (succ_75 z_1184) (succ_75 x_33639)))))
(assert (forall ((z_1184 Nat_353))
	(leq_29 false_205 (succ_75 z_1184) zero_77)))
(assert (forall ((y_1276 Nat_353))
	(leq_29 true_205 zero_77 y_1276)))
(assert (forall ((x_33640 Nat_353))
	(=>	(and true
			(diseqNat_353 x_33640 x_33640)
			(leq_29 true_205 x_33640 x_33640))
		false)))
(assert (forall ((x_33640 Nat_353))
	(=>	(and true
			(diseqNat_353 x_33640 x_33640)
			(leq_29 false_205 x_33640 x_33640))
		false)))
(check-sat)
